<instance format="XCSP3" type="CSP">
  <variables>
    <array id="x" note="x[i][j] is the value in the grid at row i and column j" size="[6][6]"> 1..36 </array>
    <array id="aux_gb" note="aux_gb[i] is the ith auxiliary variable having been automatically introduced" size="[36]">
      <domain for="aux_gb[0..1] aux_gb[4..7] aux_gb[10..11] aux_gb[24..25] aux_gb[28..31] aux_gb[34..35]"> 0..3 </domain>
      <domain for="aux_gb[2..3] aux_gb[8..9] aux_gb[12..13] aux_gb[16..19] aux_gb[22..23] aux_gb[26..27] aux_gb[32..33]"> 0..4 </domain>
      <domain for="aux_gb[14..15] aux_gb[20..21]"> 0..6 </domain>
    </array>
  </variables>
  <constraints>
    <allDifferent note="putting all values from 1 to n*n in the grid"> x[][] </allDifferent>
    <intension note="tag(symmetry-breaking"> eq(x[0][0],1) </intension>
    <group note="each cell must be linked to its neighbors">
      <intension> or(eq(%0,36),ge(%1,1)) </intension>
      <args> x[0][0] aux_gb[0] </args>
      <args> x[0][1] aux_gb[1] </args>
      <args> x[0][2] aux_gb[2] </args>
      <args> x[0][3] aux_gb[3] </args>
      <args> x[0][4] aux_gb[4] </args>
      <args> x[0][5] aux_gb[5] </args>
      <args> x[1][0] aux_gb[6] </args>
      <args> x[1][1] aux_gb[7] </args>
      <args> x[1][2] aux_gb[8] </args>
      <args> x[1][3] aux_gb[9] </args>
      <args> x[1][4] aux_gb[10] </args>
      <args> x[1][5] aux_gb[11] </args>
      <args> x[2][0] aux_gb[12] </args>
      <args> x[2][1] aux_gb[13] </args>
      <args> x[2][2] aux_gb[14] </args>
      <args> x[2][3] aux_gb[15] </args>
      <args> x[2][4] aux_gb[16] </args>
      <args> x[2][5] aux_gb[17] </args>
      <args> x[3][0] aux_gb[18] </args>
      <args> x[3][1] aux_gb[19] </args>
      <args> x[3][2] aux_gb[20] </args>
      <args> x[3][3] aux_gb[21] </args>
      <args> x[3][4] aux_gb[22] </args>
      <args> x[3][5] aux_gb[23] </args>
      <args> x[4][0] aux_gb[24] </args>
      <args> x[4][1] aux_gb[25] </args>
      <args> x[4][2] aux_gb[26] </args>
      <args> x[4][3] aux_gb[27] </args>
      <args> x[4][4] aux_gb[28] </args>
      <args> x[4][5] aux_gb[29] </args>
      <args> x[5][0] aux_gb[30] </args>
      <args> x[5][1] aux_gb[31] </args>
      <args> x[5][2] aux_gb[32] </args>
      <args> x[5][3] aux_gb[33] </args>
      <args> x[5][4] aux_gb[34] </args>
      <args> x[5][5] aux_gb[35] </args>
    </group>
    <group>
      <count>
        <list> %... </list>
        <values> 1 </values>
        <condition> (eq,%0) </condition>
      </count>
      <args> aux_gb[0] eq(x[3][0],add(x[0][0],1)) eq(x[0][3],add(x[0][0],1)) eq(x[2][2],add(x[0][0],1)) </args>
      <args> aux_gb[1] eq(x[3][1],add(x[0][1],1)) eq(x[0][4],add(x[0][1],1)) eq(x[2][3],add(x[0][1],1)) </args>
      <args> aux_gb[2] eq(x[3][2],add(x[0][2],1)) eq(x[0][5],add(x[0][2],1)) eq(x[2][0],add(x[0][2],1)) eq(x[2][4],add(x[0][2],1)) </args>
      <args> aux_gb[3] eq(x[3][3],add(x[0][3],1)) eq(x[0][0],add(x[0][3],1)) eq(x[2][1],add(x[0][3],1)) eq(x[2][5],add(x[0][3],1)) </args>
      <args> aux_gb[4] eq(x[3][4],add(x[0][4],1)) eq(x[0][1],add(x[0][4],1)) eq(x[2][2],add(x[0][4],1)) </args>
      <args> aux_gb[5] eq(x[3][5],add(x[0][5],1)) eq(x[0][2],add(x[0][5],1)) eq(x[2][3],add(x[0][5],1)) </args>
      <args> aux_gb[6] eq(x[4][0],add(x[1][0],1)) eq(x[1][3],add(x[1][0],1)) eq(x[3][2],add(x[1][0],1)) </args>
      <args> aux_gb[7] eq(x[4][1],add(x[1][1],1)) eq(x[1][4],add(x[1][1],1)) eq(x[3][3],add(x[1][1],1)) </args>
      <args> aux_gb[8] eq(x[4][2],add(x[1][2],1)) eq(x[1][5],add(x[1][2],1)) eq(x[3][0],add(x[1][2],1)) eq(x[3][4],add(x[1][2],1)) </args>
      <args> aux_gb[9] eq(x[4][3],add(x[1][3],1)) eq(x[1][0],add(x[1][3],1)) eq(x[3][1],add(x[1][3],1)) eq(x[3][5],add(x[1][3],1)) </args>
      <args> aux_gb[10] eq(x[4][4],add(x[1][4],1)) eq(x[1][1],add(x[1][4],1)) eq(x[3][2],add(x[1][4],1)) </args>
      <args> aux_gb[11] eq(x[4][5],add(x[1][5],1)) eq(x[1][2],add(x[1][5],1)) eq(x[3][3],add(x[1][5],1)) </args>
      <args> aux_gb[12] eq(x[5][0],add(x[2][0],1)) eq(x[2][3],add(x[2][0],1)) eq(x[0][2],add(x[2][0],1)) eq(x[4][2],add(x[2][0],1)) </args>
      <args> aux_gb[13] eq(x[5][1],add(x[2][1],1)) eq(x[2][4],add(x[2][1],1)) eq(x[0][3],add(x[2][1],1)) eq(x[4][3],add(x[2][1],1)) </args>
      <args> aux_gb[14] eq(x[5][2],add(x[2][2],1)) eq(x[2][5],add(x[2][2],1)) eq(x[0][0],add(x[2][2],1)) eq(x[0][4],add(x[2][2],1)) eq(x[4][0],add(x[2][2],1)) eq(x[4][4],add(x[2][2],1)) </args>
      <args> aux_gb[15] eq(x[5][3],add(x[2][3],1)) eq(x[2][0],add(x[2][3],1)) eq(x[0][1],add(x[2][3],1)) eq(x[0][5],add(x[2][3],1)) eq(x[4][1],add(x[2][3],1)) eq(x[4][5],add(x[2][3],1)) </args>
      <args> aux_gb[16] eq(x[5][4],add(x[2][4],1)) eq(x[2][1],add(x[2][4],1)) eq(x[0][2],add(x[2][4],1)) eq(x[4][2],add(x[2][4],1)) </args>
      <args> aux_gb[17] eq(x[5][5],add(x[2][5],1)) eq(x[2][2],add(x[2][5],1)) eq(x[0][3],add(x[2][5],1)) eq(x[4][3],add(x[2][5],1)) </args>
      <args> aux_gb[18] eq(x[0][0],add(x[3][0],1)) eq(x[3][3],add(x[3][0],1)) eq(x[1][2],add(x[3][0],1)) eq(x[5][2],add(x[3][0],1)) </args>
      <args> aux_gb[19] eq(x[0][1],add(x[3][1],1)) eq(x[3][4],add(x[3][1],1)) eq(x[1][3],add(x[3][1],1)) eq(x[5][3],add(x[3][1],1)) </args>
      <args> aux_gb[20] eq(x[0][2],add(x[3][2],1)) eq(x[3][5],add(x[3][2],1)) eq(x[1][0],add(x[3][2],1)) eq(x[1][4],add(x[3][2],1)) eq(x[5][0],add(x[3][2],1)) eq(x[5][4],add(x[3][2],1)) </args>
      <args> aux_gb[21] eq(x[0][3],add(x[3][3],1)) eq(x[3][0],add(x[3][3],1)) eq(x[1][1],add(x[3][3],1)) eq(x[1][5],add(x[3][3],1)) eq(x[5][1],add(x[3][3],1)) eq(x[5][5],add(x[3][3],1)) </args>
      <args> aux_gb[22] eq(x[0][4],add(x[3][4],1)) eq(x[3][1],add(x[3][4],1)) eq(x[1][2],add(x[3][4],1)) eq(x[5][2],add(x[3][4],1)) </args>
      <args> aux_gb[23] eq(x[0][5],add(x[3][5],1)) eq(x[3][2],add(x[3][5],1)) eq(x[1][3],add(x[3][5],1)) eq(x[5][3],add(x[3][5],1)) </args>
      <args> aux_gb[24] eq(x[1][0],add(x[4][0],1)) eq(x[4][3],add(x[4][0],1)) eq(x[2][2],add(x[4][0],1)) </args>
      <args> aux_gb[25] eq(x[1][1],add(x[4][1],1)) eq(x[4][4],add(x[4][1],1)) eq(x[2][3],add(x[4][1],1)) </args>
      <args> aux_gb[26] eq(x[1][2],add(x[4][2],1)) eq(x[4][5],add(x[4][2],1)) eq(x[2][0],add(x[4][2],1)) eq(x[2][4],add(x[4][2],1)) </args>
      <args> aux_gb[27] eq(x[1][3],add(x[4][3],1)) eq(x[4][0],add(x[4][3],1)) eq(x[2][1],add(x[4][3],1)) eq(x[2][5],add(x[4][3],1)) </args>
      <args> aux_gb[28] eq(x[1][4],add(x[4][4],1)) eq(x[4][1],add(x[4][4],1)) eq(x[2][2],add(x[4][4],1)) </args>
      <args> aux_gb[29] eq(x[1][5],add(x[4][5],1)) eq(x[4][2],add(x[4][5],1)) eq(x[2][3],add(x[4][5],1)) </args>
      <args> aux_gb[30] eq(x[2][0],add(x[5][0],1)) eq(x[5][3],add(x[5][0],1)) eq(x[3][2],add(x[5][0],1)) </args>
      <args> aux_gb[31] eq(x[2][1],add(x[5][1],1)) eq(x[5][4],add(x[5][1],1)) eq(x[3][3],add(x[5][1],1)) </args>
      <args> aux_gb[32] eq(x[2][2],add(x[5][2],1)) eq(x[5][5],add(x[5][2],1)) eq(x[3][0],add(x[5][2],1)) eq(x[3][4],add(x[5][2],1)) </args>
      <args> aux_gb[33] eq(x[2][3],add(x[5][3],1)) eq(x[5][0],add(x[5][3],1)) eq(x[3][1],add(x[5][3],1)) eq(x[3][5],add(x[5][3],1)) </args>
      <args> aux_gb[34] eq(x[2][4],add(x[5][4],1)) eq(x[5][1],add(x[5][4],1)) eq(x[3][2],add(x[5][4],1)) </args>
      <args> aux_gb[35] eq(x[2][5],add(x[5][5],1)) eq(x[5][2],add(x[5][5],1)) eq(x[3][3],add(x[5][5],1)) </args>
    </group>
  </constraints>
</instance>
